200
[20,21,22,23,24,25,26,27,28,29,30,31,32,33,34,35,36,37,38,39,40,41,42,43,44,45,46,47,48,49,50,51,52,53,54,55,56,57,58,59,60,61,62,63,64,65,66,67,68,69,70,71,72,73,74,75,76,77,78,79,80,81,82,83,84,85,86,87,88,89,90,91,92,93,94,95,96,97,98,99,100,101,102,103,104,105,106,107,108,109,110,111,112,113,114,115,116,117,118,119,120,121,122,123,124,125,126,127,128,129,130,131,132,133,134,135,136,137,138,139,140,141,142,143,144,145,146,147,148,149,150,151,152,153,154,155,156,157,158,159,160]
[9,9,5,11,6,10,5,9,10,12,8,6,11,5,14,6,4,4,6,5,7,9,3,10,8,8,2,8,5,7,11,9,7,9,7,12,5,6,10,10,5,11,3,6,9,3,7,4,10,6,6,6,7,8,2,7,10,3,9,11,7,7,8,5,8,4,7,11,7,5,5,3,7,6,8,7,6,6,3,9,9,8,6,12,8,6,13,5,10,12,4,7,5,9,4,6,9,4,10,8,5,3,4,7,11,4,7,4,5,11,6,11,3,4,10,5,5,9,10,4,7,9,9,4,5,5,7,10,12,5,8,7,9,4,6,3,3,9,7,6,12]
